NAME: tsp20-34
TYPE: TSP
DIMENSION: 20
EDGE_WEIGHT_TYPE: EUC_2D
NODE_COORD_SECTION
0 20 51
1 69 46
2 6 60
3 86 95
4 18 61
5 10 81
6 97 12
7 71 81
8 32 40
9 13 40
10 66 16
11 27 44
12 83 24
13 5 14
14 91 17
15 45 39
16 62 15
17 84 64
18 26 84
19 97 83
EOF